(set-logic QF_SLIA)
(declare-const result String)
(declare-const attack String)
(declare-const prefix RegLan)
(declare-const infix RegLan)
(declare-const postfix RegLan)
(declare-const postfixs String)

(assert (str.in_re attack (re.++ prefix ((_ re.loop 10000 10000) infix) postfix)))
(assert (= prefix 
     (re.++ (re.+ (re.union (re.range "a" "z") (re.range "A" "Z") (re.range "0" "9") (str.to_re "_")) ) (re.+ (re.union (str.to_re "\u{09}") (str.to_re "\u{0a}") (str.to_re "\u{0d}") (str.to_re " ")) ))
))
(assert (= infix 
         (re.++  (re.++ (re.+  (re.union  (str.to_re "\u{0c}") (re.union  (str.to_re "\u{20}") (re.union  (str.to_re "\u{0a}") (re.union  (str.to_re "\u{0d}") (re.union  (str.to_re "\u{09}")  (str.to_re "\u{0b}")))))) ) (re.*  (re.union  (str.to_re "\u{0a}")  (str.to_re "\u{0d}")) )) (re.++  (str.to_re "\u{26}") (re.++  (re.++ (re.+  (re.union  (str.to_re "\u{0c}") (re.union  (str.to_re "\u{20}") (re.union  (str.to_re "\u{0a}") (re.union  (str.to_re "\u{0d}") (re.union  (str.to_re "\u{09}")  (str.to_re "\u{0b}")))))) ) (re.++  (re.*  (re.union  (str.to_re "\u{0a}")  (str.to_re "\u{0d}")) ))) (re.++  (str.to_re "\u{26}") (re.+ re.allchar )))))
))
(assert (= postfix 
         (re.++  (str.to_re "\u{0a}") (re.++  (str.to_re "\u{31}")  (str.to_re "\u{0a}")))
))
(assert (str.in_re postfixs postfix))
(assert (>= (str.len postfixs) 1))
(assert (= result (str.++ attack postfixs)))
(check-sat)
(get-model)